1486
21 33 7 2 6 27 24 49 40 69 4 90 59 22 65 96 76 17 64 45 81 36 75 51 30 80 67 89 50 56 88 12 73 5 26 3 9 13 74 23 31 35 1 53 87 43 93 16 57 94 11 10 85 72 82 68 34 78 19 14 8 99 84 60 42 32 28 37 98 71 58 91 61 97 95 38 55 46 15 77 66 54 86 47 18 92 44 20 83 39 48 25 70 52 29 41 79 62 63 
